(set-logic QF_S)
(declare-const x String)
(assert (str.in.re x (re.inter (re.* (re.comp  (re.union  (str.to.re "\u{22}")  (str.to.re "\u{2c}"))) ) (re.* (re.comp  (str.to.re "\u{22}")) ) )))
(check-sat)
(get-model)